3 
4  51 
5  13 29 49 
6  01 14 29 44 
7  02 17 32 47 
8  02 17 32 47 
9  02 17 32 47 
10  02 17 32 47 
11  02 17 32 47 
12  02 17 32 47 
13  02 17 32 47 
14  02 17 32 47 
15  02 17 32 47 
16  02 17 32 47 
17  02 17 32 47 
18  02 17 33 49 
19  04 19 34 49 
20  04 19 34 49 
21  04 19 34 48 
22  03 18 33 48 
23 
0 
